100 80
40 50
70 55
55 70
55 25
65 20
20 65
65 80
25 65
45 30
80 15
20 55
50 80
5 30
55 80
35 60
40 35
50 15
10 65
30 35
60 30
75 60
75 75
40 45
40 55
50 30
80 45
5 55
70 20
45 60
50 40
45 15
20 65
5 20
40 70
70 75
50 35
35 10
15 15
55 5
80 25
65 50
20 10
80 5
15 15
45 55
45 55
45 70
60 65
45 30
40 5
70 75
60 20
80 10
70 75
35 75
10 70
60 75
35 45
50 60
5 50
30 5
80 10
45 5
30 30
30 40
30 75
75 50
45 40
70 15
45 70
50 15
35 70
15 60
30 55
20 30
70 20
25 65
40 70
50 80
60 60
45 25
60 20
35 25
15 25
55 40
20 10
20 55
5 45
75 25
35 10
30 5
40 65
25 65
20 15
80 55
5 10
50 45
50 45
50 40
30 75
